(declare-const X String)
; cyber@yahoo\x2Ecom\s+WindowsAttachedPalas\x2Estarware\x2Ecom\x2Fdp\x2Fsearch\?x=
(assert (str.in_re X (re.++ (str.to_re "cyber@yahoo.com") (re.+ (re.union (str.to_re " ") (str.to_re "\u{9}") (str.to_re "\u{a}") (str.to_re "\u{c}") (str.to_re "\u{d}"))) (str.to_re "WindowsAttachedPalas.starware.com/dp/search?x=\u{a}"))))
; /\x2epict([\?\x5c\x2f]|$)/smiU
(assert (not (str.in_re X (re.++ (str.to_re "/.pict") (re.union (str.to_re "?") (str.to_re "\u{5c}") (str.to_re "/")) (str.to_re "/smiU\u{a}")))))
; ^(((ht|f)tp(s?))\://).*$
(assert (not (str.in_re X (re.++ (re.* re.allchar) (str.to_re "\u{a}://") (re.union (str.to_re "ht") (str.to_re "f")) (str.to_re "tp") (re.opt (str.to_re "s"))))))
(check-sat)
